(set-logic QF_S)
(declare-fun var_0xINPUT_48582 () String)
(assert (and (= (len var_0xINPUT_48582) 0) (= (len var_0xINPUT_48582) 0) (not (= var_0xINPUT_48582 "pVEECEXk2p"))))
(check-sat var_0xINPUT_48582)